rows = 12;
cols = 7;
max_steps = 16;
problem = array2d(1..rows, 1..cols, 
[
 %1 2 3 4 5 6 7
  4,7,W,W,W,W,3, % 1
  W,W,W,W,3,W,4, % 2
  W,W,4,W,7,W,W, % 3
  7,W,3,W,W,W,W, % 4
  B,B,B,W,3,W,W, % 5
  B,B,W,7,W,W,7, % 6
  B,B,W,W,W,4,B, % 7
  B,4,4,W,W,W,B, % 8
  B,W,W,W,W,3,B, % 9
  W,W,3,W,4,B,B, % 0
  3,W,W,W,W,B,B, % 1
  7,W,7,4,B,B,B  % 2
]);

%sum_points = 36;